c A SAT instance generated from a 3-CNF formula that had 27 clauses and 9 variables
p cnf 9 27
-4 5 1 0
6 1 -7 0
6 8 -9 0
1 -2 -7 0
2 -7 -4 0
-4 5 -3 0
8 -3 5 0
-4 -3 -1 0
8 4 3 0
6 8 7 0
5 -2 7 0
-6 -3 5 0
3 4 1 0
-1 3 -2 0
-4 -2 6 0
1 8 3 0
5 3 -2 0
-4 3 9 0
5 -4 9 0
-7 -3 -8 0
-4 5 9 0
9 1 4 0
6 4 -7 0
-7 8 -4 0
-8 3 9 0
-4 5 -1 0
-4 5 -1 0
